NAME : problems/30-tsp/instance-49.tsp
COMMENT : No Comment
TYPE : TSP
DIMENSION: 30
EDGE_WEIGHT_TYPE : EUC_2D
NODE_COORD_SECTION
1 9331 2803 
2 6605 3096 
3 5906 1518 
4 1169 4853 
5 103 3806 
6 4483 1343 
7 721 9155 
8 8152 2410 
9 1236 1979 
10 2217 2146 
11 3043 6686 
12 3817 8330 
13 4693 5353 
14 1485 3037 
15 3648 4584 
16 151 376 
17 1326 4829 
18 807 1856 
19 3590 2176 
20 3831 2723 
21 8179 6575 
22 4757 6027 
23 9363 9185 
24 9747 5268 
25 9563 3117 
26 6234 1122 
27 6579 975 
28 18 1404 
29 4206 2057 
30 76 5660 
EOF
